p cnf 144 1
144 0
w 1 0.365113
w 2 1 0.0809816
w 2 -1 0.835267
w 3 2 0
w 3 -2 1
w 4 3 1
w 4 -3 0
w 5 4 0.598686
w 5 -4 0.764634
w 6 5 1
w 6 -5 0
w 7 6 0.379201
w 7 -6 0.879263
w 8 7 0
w 8 -7 1
w 9 8 0.495758
w 9 -8 0.0154941
w 10 9 1
w 10 -9 0
w 11 10 0
w 11 -10 1
w 12 11 0
w 12 -11 1
w 13 1 0
w 13 -1 1
w 14 13 2 1
w 14 13 -2 1
w 14 -13 2 1
w 14 -13 -2 0
w 15 14 3 0.747141
w 15 14 -3 0.848533
w 15 -14 3 0.468076
w 15 -14 -3 0.924165
w 16 15 4 0
w 16 15 -4 1
w 16 -15 4 1
w 16 -15 -4 1
w 17 16 5 1
w 17 16 -5 0
w 17 -16 5 0
w 17 -16 -5 0
w 18 17 6 0
w 18 17 -6 1
w 18 -17 6 1
w 18 -17 -6 0
w 19 18 7 0
w 19 18 -7 1
w 19 -18 7 0
w 19 -18 -7 0
w 20 19 8 0.0163454
w 20 19 -8 0.661707
w 20 -19 8 0.85265
w 20 -19 -8 0.875005
w 21 20 9 1
w 21 20 -9 1
w 21 -20 9 0
w 21 -20 -9 1
w 22 21 10 0
w 22 21 -10 0
w 22 -21 10 0
w 22 -21 -10 1
w 23 22 11 0
w 23 22 -11 1
w 23 -22 11 1
w 23 -22 -11 1
w 24 23 12 1
w 24 23 -12 1
w 24 -23 12 1
w 24 -23 -12 0
w 25 13 1
w 25 -13 0
w 26 25 14 1
w 26 25 -14 0
w 26 -25 14 1
w 26 -25 -14 1
w 27 26 15 1
w 27 26 -15 0
w 27 -26 15 0
w 27 -26 -15 0
w 28 27 16 1
w 28 27 -16 0
w 28 -27 16 0
w 28 -27 -16 1
w 29 28 17 0
w 29 28 -17 1
w 29 -28 17 1
w 29 -28 -17 1
w 30 29 18 0
w 30 29 -18 0
w 30 -29 18 1
w 30 -29 -18 1
w 31 30 19 0.175134
w 31 30 -19 0.154575
w 31 -30 19 0.367546
w 31 -30 -19 0.555325
w 32 31 20 0
w 32 31 -20 0
w 32 -31 20 1
w 32 -31 -20 0
w 33 32 21 0.896455
w 33 32 -21 0.442612
w 33 -32 21 0.179955
w 33 -32 -21 0.243054
w 34 33 22 0.506311
w 34 33 -22 0.113607
w 34 -33 22 0.502543
w 34 -33 -22 0.0252053
w 35 34 23 1
w 35 34 -23 0
w 35 -34 23 0
w 35 -34 -23 0
w 36 35 24 0
w 36 35 -24 1
w 36 -35 24 1
w 36 -35 -24 0
w 37 25 1
w 37 -25 0
w 38 37 26 0.441513
w 38 37 -26 0.919956
w 38 -37 26 0.356949
w 38 -37 -26 0.697002
w 39 38 27 0
w 39 38 -27 0
w 39 -38 27 1
w 39 -38 -27 0
w 40 39 28 1
w 40 39 -28 1
w 40 -39 28 0
w 40 -39 -28 0
w 41 40 29 0
w 41 40 -29 1
w 41 -40 29 0
w 41 -40 -29 1
w 42 41 30 0
w 42 41 -30 1
w 42 -41 30 0
w 42 -41 -30 1
w 43 42 31 1
w 43 42 -31 1
w 43 -42 31 1
w 43 -42 -31 0
w 44 43 32 0.22841
w 44 43 -32 0.646182
w 44 -43 32 0.215932
w 44 -43 -32 0.925412
w 45 44 33 0
w 45 44 -33 1
w 45 -44 33 1
w 45 -44 -33 1
w 46 45 34 1
w 46 45 -34 0
w 46 -45 34 1
w 46 -45 -34 1
w 47 46 35 0
w 47 46 -35 1
w 47 -46 35 0
w 47 -46 -35 0
w 48 47 36 1
w 48 47 -36 0
w 48 -47 36 0
w 48 -47 -36 1
w 49 37 0
w 49 -37 1
w 50 49 38 0
w 50 49 -38 1
w 50 -49 38 0
w 50 -49 -38 0
w 51 50 39 0.103551
w 51 50 -39 0.765594
w 51 -50 39 0.844888
w 51 -50 -39 0.759691
w 52 51 40 0.616948
w 52 51 -40 0.254595
w 52 -51 40 0.557172
w 52 -51 -40 0.132113
w 53 52 41 1
w 53 52 -41 0
w 53 -52 41 1
w 53 -52 -41 0
w 54 53 42 0
w 54 53 -42 0
w 54 -53 42 0
w 54 -53 -42 1
w 55 54 43 1
w 55 54 -43 1
w 55 -54 43 1
w 55 -54 -43 0
w 56 55 44 1
w 56 55 -44 1
w 56 -55 44 1
w 56 -55 -44 0
w 57 56 45 1
w 57 56 -45 0
w 57 -56 45 1
w 57 -56 -45 0
w 58 57 46 0.748973
w 58 57 -46 0.255057
w 58 -57 46 0.0804109
w 58 -57 -46 0.306145
w 59 58 47 1
w 59 58 -47 0
w 59 -58 47 1
w 59 -58 -47 0
w 60 59 48 1
w 60 59 -48 0
w 60 -59 48 0
w 60 -59 -48 0
w 61 49 0
w 61 -49 1
w 62 61 50 0
w 62 61 -50 1
w 62 -61 50 1
w 62 -61 -50 0
w 63 62 51 0
w 63 62 -51 1
w 63 -62 51 0
w 63 -62 -51 1
w 64 63 52 1
w 64 63 -52 0
w 64 -63 52 0
w 64 -63 -52 0
w 65 64 53 0
w 65 64 -53 0
w 65 -64 53 1
w 65 -64 -53 0
w 66 65 54 0.184785
w 66 65 -54 0.553141
w 66 -65 54 0.771074
w 66 -65 -54 0.269295
w 67 66 55 0.0208148
w 67 66 -55 0.51838
w 67 -66 55 0.195679
w 67 -66 -55 0.144857
w 68 67 56 0.917834
w 68 67 -56 0.54741
w 68 -67 56 0.224089
w 68 -67 -56 0.608053
w 69 68 57 0
w 69 68 -57 1
w 69 -68 57 0
w 69 -68 -57 0
w 70 69 58 0.450642
w 70 69 -58 0.045759
w 70 -69 58 0.734132
w 70 -69 -58 0.0502504
w 71 70 59 1
w 71 70 -59 0
w 71 -70 59 1
w 71 -70 -59 1
w 72 71 60 0
w 72 71 -60 1
w 72 -71 60 0
w 72 -71 -60 0
w 73 61 0.313463
w 73 -61 0.885054
w 74 73 62 0.45832
w 74 73 -62 0.869256
w 74 -73 62 0.886953
w 74 -73 -62 0.00573021
w 75 74 63 0
w 75 74 -63 1
w 75 -74 63 1
w 75 -74 -63 0
w 76 75 64 1
w 76 75 -64 0
w 76 -75 64 0
w 76 -75 -64 1
w 77 76 65 1
w 77 76 -65 1
w 77 -76 65 0
w 77 -76 -65 0
w 78 77 66 0.250866
w 78 77 -66 0.599484
w 78 -77 66 0.492113
w 78 -77 -66 0.348245
w 79 78 67 0
w 79 78 -67 0
w 79 -78 67 1
w 79 -78 -67 1
w 80 79 68 0
w 80 79 -68 0
w 80 -79 68 0
w 80 -79 -68 1
w 81 80 69 1
w 81 80 -69 1
w 81 -80 69 1
w 81 -80 -69 0
w 82 81 70 1
w 82 81 -70 0
w 82 -81 70 0
w 82 -81 -70 0
w 83 82 71 0
w 83 82 -71 1
w 83 -82 71 0
w 83 -82 -71 0
w 84 83 72 1
w 84 83 -72 1
w 84 -83 72 0
w 84 -83 -72 1
w 85 73 1
w 85 -73 0
w 86 85 74 0
w 86 85 -74 0
w 86 -85 74 0
w 86 -85 -74 1
w 87 86 75 0
w 87 86 -75 0
w 87 -86 75 1
w 87 -86 -75 0
w 88 87 76 0
w 88 87 -76 1
w 88 -87 76 0
w 88 -87 -76 0
w 89 88 77 0
w 89 88 -77 1
w 89 -88 77 1
w 89 -88 -77 0
w 90 89 78 1
w 90 89 -78 0
w 90 -89 78 1
w 90 -89 -78 0
w 91 90 79 1
w 91 90 -79 1
w 91 -90 79 0
w 91 -90 -79 0
w 92 91 80 0.55751
w 92 91 -80 0.972716
w 92 -91 80 0.94802
w 92 -91 -80 0.929567
w 93 92 81 1
w 93 92 -81 0
w 93 -92 81 1
w 93 -92 -81 1
w 94 93 82 1
w 94 93 -82 1
w 94 -93 82 1
w 94 -93 -82 0
w 95 94 83 1
w 95 94 -83 0
w 95 -94 83 0
w 95 -94 -83 0
w 96 95 84 1
w 96 95 -84 1
w 96 -95 84 1
w 96 -95 -84 0
w 97 85 0.0624871
w 97 -85 0.870824
w 98 97 86 1
w 98 97 -86 1
w 98 -97 86 0
w 98 -97 -86 1
w 99 98 87 0.316848
w 99 98 -87 0.334988
w 99 -98 87 0.0961924
w 99 -98 -87 0.961818
w 100 99 88 0
w 100 99 -88 1
w 100 -99 88 1
w 100 -99 -88 0
w 101 100 89 0
w 101 100 -89 0
w 101 -100 89 1
w 101 -100 -89 0
w 102 101 90 0
w 102 101 -90 1
w 102 -101 90 0
w 102 -101 -90 0
w 103 102 91 0
w 103 102 -91 1
w 103 -102 91 0
w 103 -102 -91 0
w 104 103 92 1
w 104 103 -92 1
w 104 -103 92 0
w 104 -103 -92 0
w 105 104 93 1
w 105 104 -93 0
w 105 -104 93 0
w 105 -104 -93 1
w 106 105 94 1
w 106 105 -94 1
w 106 -105 94 0
w 106 -105 -94 1
w 107 106 95 1
w 107 106 -95 1
w 107 -106 95 0
w 107 -106 -95 1
w 108 107 96 0
w 108 107 -96 1
w 108 -107 96 1
w 108 -107 -96 0
w 109 97 0
w 109 -97 1
w 110 109 98 1
w 110 109 -98 0
w 110 -109 98 1
w 110 -109 -98 1
w 111 110 99 0.374266
w 111 110 -99 0.339349
w 111 -110 99 0.846058
w 111 -110 -99 0.456101
w 112 111 100 1
w 112 111 -100 0
w 112 -111 100 0
w 112 -111 -100 1
w 113 112 101 1
w 113 112 -101 1
w 113 -112 101 0
w 113 -112 -101 1
w 114 113 102 1
w 114 113 -102 1
w 114 -113 102 1
w 114 -113 -102 0
w 115 114 103 1
w 115 114 -103 1
w 115 -114 103 0
w 115 -114 -103 0
w 116 115 104 0.95267
w 116 115 -104 0.239427
w 116 -115 104 0.284153
w 116 -115 -104 0.0592484
w 117 116 105 0.239576
w 117 116 -105 0.433514
w 117 -116 105 0.27812
w 117 -116 -105 0.0856346
w 118 117 106 0.57432
w 118 117 -106 0.157316
w 118 -117 106 0.523744
w 118 -117 -106 0.789191
w 119 118 107 1
w 119 118 -107 1
w 119 -118 107 0
w 119 -118 -107 1
w 120 119 108 0
w 120 119 -108 1
w 120 -119 108 0
w 120 -119 -108 0
w 121 109 1
w 121 -109 0
w 122 121 110 0
w 122 121 -110 1
w 122 -121 110 0
w 122 -121 -110 0
w 123 122 111 1
w 123 122 -111 0
w 123 -122 111 1
w 123 -122 -111 0
w 124 123 112 1
w 124 123 -112 0
w 124 -123 112 0
w 124 -123 -112 0
w 125 124 113 0.595418
w 125 124 -113 0.700232
w 125 -124 113 0.381776
w 125 -124 -113 0.813057
w 126 125 114 0
w 126 125 -114 1
w 126 -125 114 1
w 126 -125 -114 0
w 127 126 115 1
w 127 126 -115 0
w 127 -126 115 1
w 127 -126 -115 1
w 128 127 116 1
w 128 127 -116 0
w 128 -127 116 1
w 128 -127 -116 1
w 129 128 117 0.689926
w 129 128 -117 0.0747899
w 129 -128 117 0.747629
w 129 -128 -117 0.748527
w 130 129 118 0
w 130 129 -118 1
w 130 -129 118 1
w 130 -129 -118 0
w 131 130 119 0.138462
w 131 130 -119 0.596781
w 131 -130 119 0.69652
w 131 -130 -119 0.520238
w 132 131 120 0
w 132 131 -120 1
w 132 -131 120 0
w 132 -131 -120 0
w 133 121 1
w 133 -121 0
w 134 133 122 1
w 134 133 -122 1
w 134 -133 122 1
w 134 -133 -122 0
w 135 134 123 0.00244737
w 135 134 -123 0.0932495
w 135 -134 123 0.968448
w 135 -134 -123 0.692373
w 136 135 124 1
w 136 135 -124 1
w 136 -135 124 0
w 136 -135 -124 1
w 137 136 125 1
w 137 136 -125 1
w 137 -136 125 0
w 137 -136 -125 1
w 138 137 126 1
w 138 137 -126 0
w 138 -137 126 0
w 138 -137 -126 0
w 139 138 127 0
w 139 138 -127 0
w 139 -138 127 1
w 139 -138 -127 0
w 140 139 128 1
w 140 139 -128 1
w 140 -139 128 0
w 140 -139 -128 0
w 141 140 129 0.0973555
w 141 140 -129 0.574249
w 141 -140 129 0.0694665
w 141 -140 -129 0.0658033
w 142 141 130 1
w 142 141 -130 0
w 142 -141 130 1
w 142 -141 -130 1
w 143 142 131 0
w 143 142 -131 0
w 143 -142 131 1
w 143 -142 -131 0
w 144 143 132 1
w 144 143 -132 0
w 144 -143 132 1
w 144 -143 -132 1